mixintcount/benchmarks/random_v2l/3_3_70.smt2
(set-logic QF_LIA)
(set-info :ran/ran2.smt2)
(set-info :smt-lib-version 2.0)
(declare-fun x1 () Int)
(declare-fun x2 () Int)
(declare-fun x3 () Int)
(assert (<= (+ (* 8 x1) (* 0 x2) (* 10 x3) ) (- 8)))
(assert (<= (+ (* 9 x1) (* 9 x2) (* (- 5) x3) ) 13))
(assert (<= (+ (* 5 x1) (* 0 x2) (* 8 x3) ) (- 24)))
(assert (<= (+ (* (- 4) x1) (* 7 x2) (* (- 4) x3) ) 5))
(assert (<= (+ (* 0 x1) (* 6 x2) (* (- 9) x3) ) (- 48)))
(assert (<= (+ (* (- 3) x1) (* (- 7) x2) (* (- 8) x3) ) 16))
(assert (<= (+ (* 1 x1) (* 0 x2) (* 0 x3) ) 70))
(assert (<= (+ (* (- 1) x1) (* 0 x2) (* 0 x3) ) 70))
(assert (<= (+ (* 0 x1) (* 1 x2) (* 0 x3) ) 70))
(assert (<= (+ (* 0 x1) (* (- 1) x2) (* 0 x3) ) 70))
(assert (<= (+ (* 0 x1) (* 0 x2) (* 1 x3) ) 70))
(assert (<= (+ (* 0 x1) (* 0 x2) (* (- 1) x3) ) 70))
