mixintcount/benchmarks/random_v2l/3_3_70.in
12 5
#	x1	x2	x3;		0 = Real; 1 = Integer
	1	1	1
1	8	0	10	-8
1	9	9	-5	13
1	5	0	8	-24
1	-4	7	-4	5
1	0	6	-9	-48
1	-3	-7	-8	16
1	1	0	0	70
1	-1	0	0	70
1	0	1	0	70
1	0	-1	0	70
1	0	0	1	70
1	0	0	-1	70
